Geometry = GenFormat {
    # 2x1 Si 100 surface
 80  S
 Si
    1  1    0.1437480526E+01    0.7721161972E+01    0.3152653428E+02
    2  1   -0.8428615855E+00    0.7721161875E+01    0.3086702931E+02
    3  1    0.1437480524E+01    0.3860580999E+01    0.3152653427E+02
    4  1   -0.8428615861E+00    0.3860580902E+01    0.3086702931E+02
    5  1    0.1827399362E+01    0.9651452468E+01    0.3011547545E+02
    6  1   -0.1864884913E+01    0.9651452384E+01    0.3003731485E+02
    7  1    0.1827399362E+01    0.5790871497E+01    0.3011547545E+02
    8  1   -0.1864884913E+01    0.5790871412E+01    0.3003731485E+02
    9  1    0.3743975820E-01    0.9651452536E+01    0.2855213936E+02
   10  1   -0.3902768228E+01    0.9651452475E+01    0.2878290892E+02
   11  1    0.3743975861E-01    0.5790871565E+01    0.2855213936E+02
   12  1   -0.3902768228E+01    0.5790871503E+01    0.2878290892E+02
   13  1   -0.7136264950E-02    0.7721162067E+01    0.2720453070E+02
   14  1   -0.3861967230E+01    0.7721162029E+01    0.2738192745E+02
   15  1   -0.7136264603E-02    0.3860581094E+01    0.2720453071E+02
   16  1   -0.3861967230E+01    0.3860581056E+01    0.2738192745E+02
   17  1    0.1969531833E+01    0.7721162032E+01    0.2593086118E+02
   18  1   -0.1977910773E+01    0.7721162032E+01    0.2592638514E+02
   19  1    0.1969531833E+01    0.3860581059E+01    0.2593086119E+02
   20  1   -0.1977910773E+01    0.3860581059E+01    0.2592638514E+02
   21  1    0.1951234618E+01    0.9651452582E+01    0.2456501787E+02
   22  1   -0.1955899391E+01    0.9651452583E+01    0.2456202934E+02
   23  1    0.1951234618E+01    0.5790871608E+01    0.2456501787E+02
   24  1   -0.1955899391E+01    0.5790871609E+01    0.2456202934E+02
   25  1   -0.1152085940E-02    0.9651452518E+01    0.2322094409E+02
   26  1   -0.3863496926E+01    0.9651452516E+01    0.2317739692E+02
   27  1   -0.1152086010E-02    0.5790871545E+01    0.2322094409E+02
   28  1   -0.3863496926E+01    0.5790871543E+01    0.2317739692E+02
   29  1   -0.8116365210E-03    0.7721162118E+01    0.2184985479E+02
   30  1   -0.3862197602E+01    0.7721162130E+01    0.2181985846E+02
   31  1   -0.8116365335E-03    0.3860581146E+01    0.2184985479E+02
   32  1   -0.3862197602E+01    0.3860581157E+01    0.2181985846E+02
   33  1    0.1921966035E+01    0.7721162015E+01    0.2047060411E+02
   34  1   -0.1923884808E+01    0.7721162015E+01    0.2047115778E+02
   35  1    0.1921966035E+01    0.3860581042E+01    0.2047060411E+02
   36  1   -0.1923884808E+01    0.3860581042E+01    0.2047115778E+02
   37  1    0.1925875074E+01    0.9651452609E+01    0.1910679923E+02
   38  1   -0.1926851254E+01    0.9651452609E+01    0.1910686887E+02
   39  1    0.1925875074E+01    0.5790871637E+01    0.1910679923E+02
   40  1   -0.1926851254E+01    0.5790871636E+01    0.1910686887E+02
   41  1   -0.4009019549E-03    0.9651452476E+01    0.1773979445E+02
   42  1   -0.3860914185E+01    0.9651452479E+01    0.1774626324E+02
   43  1   -0.4009019233E-03    0.5790871503E+01    0.1773979445E+02
   44  1   -0.3860914185E+01    0.5790871506E+01    0.1774626324E+02
   45  1    0.2038860596E-03    0.7721162100E+01    0.1637750927E+02
   46  1   -0.3861243614E+01    0.7721162096E+01    0.1638017174E+02
   47  1    0.2038860638E-03    0.3860581127E+01    0.1637750927E+02
   48  1   -0.3861243614E+01    0.3860581123E+01    0.1638017174E+02
   49  1    0.1929698999E+01    0.7721161969E+01    0.1501575933E+02
   50  1   -0.1930147971E+01    0.7721161970E+01    0.1501330979E+02
   51  1    0.1929698999E+01    0.3860580996E+01    0.1501575933E+02
   52  1   -0.1930147971E+01    0.3860580997E+01    0.1501330979E+02
   53  1    0.1927439273E+01    0.9651452546E+01    0.1365310575E+02
   54  1   -0.1927625273E+01    0.9651452545E+01    0.1364258819E+02
   55  1    0.1927439273E+01    0.5790871573E+01    0.1365310575E+02
   56  1   -0.1927625273E+01    0.5790871572E+01    0.1364258819E+02
   57  1    0.1015484888E-01    0.9651452450E+01    0.1227223394E+02
   58  1   -0.3870860777E+01    0.9651452444E+01    0.1228541256E+02
   59  1    0.1015484886E-01    0.5790871477E+01    0.1227223394E+02
   60  1   -0.3870860777E+01    0.5790871471E+01    0.1228541256E+02
   61  1    0.2935781371E-01    0.7721162009E+01    0.1090044229E+02
   62  1   -0.3890733970E+01    0.7721162013E+01    0.1092153623E+02
   63  1    0.2935781374E-01    0.3860581036E+01    0.1090044229E+02
   64  1   -0.3890733970E+01    0.3860581040E+01    0.1092153623E+02
   65  1    0.1942118116E+01    0.7721161961E+01    0.9464662983E+01
   66  1   -0.1940994120E+01    0.7721161962E+01    0.9607001268E+01
   67  1    0.1942118116E+01    0.3860580988E+01    0.9464662983E+01
   68  1   -0.1940994120E+01    0.3860580989E+01    0.9607001267E+01
   69  1    0.1909734206E+01    0.9651452456E+01    0.8054828088E+01
   70  1   -0.1901192821E+01    0.9651452462E+01    0.8250494241E+01
   71  1    0.1909734206E+01    0.5790871483E+01    0.8054828088E+01
   72  1   -0.1901192821E+01    0.5790871489E+01    0.8250494241E+01
   73  1   -0.7833667408E-01    0.9651452440E+01    0.6722054960E+01
   74  1   -0.3806612338E+01    0.9651452430E+01    0.6751743777E+01
   75  1   -0.7833667407E-01    0.5790871467E+01    0.6722054960E+01
   76  1   -0.3806612338E+01    0.5790871457E+01    0.6751743777E+01
   77  1   -0.4728460438E+00    0.7721161956E+01    0.5907673424E+01
   78  1   -0.2760863890E+01    0.7721161951E+01    0.5369641567E+01
   79  1   -0.4728460438E+00    0.3860580983E+01    0.5907673424E+01
   80  1   -0.2760863890E+01    0.3860580978E+01    0.5369641567E+01
    0.0000000000E+00    0.0000000000E+00    0.0000000000E+00
    0.7721161946E+01    0.0000000000E+00    0.0000000000E+00
    0.0000000000E+00    0.7721161946E+01    0.0000000000E+00
    0.0000000000E+00    0.0000000000E+00    0.1000000000E+04
}

Driver = LBFGS {
    # top and bottom layers of the slab only
    MovedAtoms = 1:80 # 1:16 81:96
}

Hamiltonian = DFTB {
    SCC = Yes
    ReadInitialCharges = Yes
    MaxAngularMomentum {
        Si = "p"
    }
    Filling = Fermi {
      Temperature [K] = 500      
    }
    SlaterKosterFiles = Type2FileNames {
        Separator = "-"
        Suffix = ".skf"
    }
    KPointsAndWeights = SupercellFolding {
        6 0 0
        0 6 0
        0 0 1
        0.5 0.5 0.0
    }
}

ParserOptions {
    ParserVersion = 8
}

Parallel {
    # Allow OMP threads explicitely to test for hybrid parallelisation with
    # MPI-binary. (Check the manual before using this in production runs!)
    UseOmpThreads = Yes
    Groups = 4
}
